InboundTrucks  = 80;
OutboundTrucks = 40;
InboundDoors   = 16;
OutboundDoors  = 8;
ReleaseTime    = [23,10,215,125,153,236,54,7,199,152,211,66,156,60,185,5,198,63,88,164,24,191,229,33,30,26,142,189,229,89,146,66,150,97,113,51,126,191,26,76,240,18,116,152,116,66,156,45,30,4,233,214,96,206,153,35,123,131,222,95,17,160,162,212,123,72,172,111,198,86,161,82,13,208,58,44,188,223,11,163];
UnloadTime     = [3,2,2,2,7,4,5,5,5,8,9,2,1,3,7,1,8,9,1,6,3,6,6,1,4,10,1,7,7,5,3,8,5,1,3,8,1,4,8,2,3,2,4,4,9,2,1,9,4,2,3,7,2,5,5,9,2,2,5,4,5,9,3,7,2,5,7,2,7,9,1,2,7,6,6,7,2,2,5,4];
LoadTime       = [4,3,2,5,3,2,8,9,4,1,2,5,10,9,5,7,10,8,2,2,1,7,7,1,10,1,7,8,6,5,8,7,6,9,5,3,3,10,6,2];
TransferTime   = [| 5,1,3,3,2,3,4,5,5,3,2,5,4,3,2,5,2,4,1,4,2,3,5,3,3,4,5,1,4,4,4,1,4,1,3,3,3,5,4,2 | 1,5,4,4,3,3,4,1,4,2,5,1,5,3,3,3,5,3,1,3,2,2,2,2,4,3,2,3,1,5,2,5,1,2,3,4,5,2,2,1 | 1,5,2,1,4,3,5,2,1,1,2,2,1,1,1,2,3,5,5,5,4,4,3,5,5,2,2,4,1,4,2,2,1,4,3,2,5,1,2,1 | 2,4,3,2,4,4,4,2,3,2,3,4,1,5,1,5,1,1,1,1,3,5,2,4,2,4,5,1,3,3,2,2,5,1,3,4,1,5,1,1 | 1,4,4,1,5,4,2,2,1,2,4,1,1,5,5,1,5,3,3,1,3,3,3,5,5,2,3,4,2,3,2,2,1,4,1,1,3,1,1,2 | 4,4,1,4,4,4,1,4,3,4,5,2,4,4,2,4,1,5,3,1,3,4,5,1,3,5,1,4,4,1,1,3,1,2,3,5,1,4,4,3 | 5,3,5,2,5,5,3,2,3,5,2,1,5,4,1,4,5,5,2,5,5,1,4,4,3,2,5,3,4,1,3,2,5,5,5,4,1,2,4,2 | 5,3,2,3,3,2,4,5,5,1,3,3,5,5,4,4,2,1,2,5,2,1,3,5,1,5,4,5,4,4,2,3,4,4,5,1,5,1,1,5 | 2,2,5,3,2,4,3,5,4,2,2,2,3,1,3,3,4,5,5,1,4,2,5,2,5,5,1,2,3,4,4,3,3,4,2,5,4,5,5,1 | 1,2,1,4,3,5,3,2,2,1,3,1,4,1,2,4,2,2,3,3,1,3,4,3,2,3,2,2,5,3,3,5,3,4,2,2,1,5,5,1 | 1,5,2,5,3,5,1,2,4,5,2,1,1,5,1,2,1,4,2,1,2,2,3,1,2,1,1,1,2,5,2,3,4,5,3,1,4,5,5,1 | 4,5,3,1,2,4,2,4,2,5,5,1,1,1,5,5,4,1,1,4,2,2,4,4,5,2,4,2,1,1,4,2,1,2,5,5,1,4,1,1 | 5,2,1,5,3,4,2,3,3,2,4,4,1,2,1,2,1,2,4,2,4,2,5,3,4,3,2,1,3,5,5,2,5,5,3,1,2,2,5,4 | 4,4,3,2,4,4,2,3,3,2,4,3,5,3,4,1,1,2,3,3,2,1,3,1,1,3,3,4,5,5,4,2,4,5,4,1,2,3,3,2 | 3,1,3,2,1,1,2,5,3,1,1,2,1,1,2,2,3,2,3,3,5,3,1,1,5,4,4,1,5,3,5,1,2,5,4,5,1,5,1,5 | 4,5,5,2,2,4,5,4,1,5,4,5,5,2,3,3,4,2,2,1,4,1,5,1,1,3,2,1,4,2,2,2,2,4,1,5,2,1,3,3 | 5,2,5,5,5,2,4,3,3,5,3,5,1,1,5,3,3,3,3,2,3,2,3,4,4,2,4,4,5,2,2,1,4,1,5,2,1,3,5,5 | 4,3,3,1,4,2,4,1,1,2,2,3,3,1,4,2,4,5,2,4,1,1,1,5,5,5,4,5,3,1,3,3,2,3,1,4,1,5,2,4 | 3,1,2,2,1,1,2,3,5,2,3,4,4,3,3,5,3,2,2,1,2,4,1,4,4,3,4,1,2,2,2,4,2,3,3,5,1,4,5,5 | 5,3,5,2,1,3,4,1,5,1,4,5,1,3,4,5,5,2,4,5,4,4,5,3,1,4,4,2,3,2,5,1,5,5,3,1,1,4,5,2 | 3,2,5,4,3,5,1,1,3,3,4,3,5,4,5,2,4,4,1,4,3,1,2,5,5,2,5,4,1,3,3,5,5,1,2,2,2,3,2,2 | 1,2,1,3,1,1,5,4,4,3,4,5,2,1,4,3,2,2,2,5,1,3,3,4,2,4,4,1,4,5,2,4,2,3,5,4,4,5,4,2 | 2,4,4,4,2,5,4,2,3,1,2,4,5,4,3,4,4,3,5,1,4,5,2,5,5,3,1,4,3,2,2,4,2,5,4,3,5,1,3,1 | 4,3,2,4,1,3,5,1,3,5,5,2,2,2,5,1,3,5,5,4,3,2,4,3,1,4,2,4,3,5,4,1,5,3,2,1,1,3,1,1 | 3,3,2,1,5,5,3,1,2,4,2,5,2,4,4,4,2,1,1,3,3,2,1,5,2,5,3,5,4,5,3,3,3,2,1,5,3,2,3,1 | 3,5,1,2,4,2,1,5,4,1,1,2,3,1,3,3,5,2,5,1,3,2,2,2,3,5,3,3,5,4,1,1,5,3,5,1,4,5,5,5 | 3,2,2,1,4,4,2,3,5,4,4,2,5,5,5,1,5,2,3,4,4,1,3,5,5,3,3,4,2,4,1,1,3,3,5,4,5,4,5,3 | 5,5,3,4,4,2,5,3,1,2,5,3,4,3,2,4,2,5,2,5,3,4,3,1,2,3,3,2,5,3,3,1,1,1,2,4,3,5,5,1 | 4,2,1,1,1,3,1,5,3,4,1,3,3,3,2,1,1,1,5,4,1,1,5,4,2,1,3,2,2,5,4,3,5,2,5,1,5,2,2,5 | 5,5,3,3,3,4,5,2,3,4,2,5,2,2,4,1,2,2,1,4,5,5,2,5,3,2,3,5,5,2,4,5,5,1,5,1,5,5,1,4 | 2,2,1,5,4,1,2,4,2,1,1,3,3,4,2,4,4,3,5,1,5,4,3,1,5,2,1,4,4,1,3,5,3,2,3,4,3,3,1,5 | 3,4,5,3,5,1,4,2,3,2,1,3,4,2,3,5,4,2,2,2,4,4,2,2,2,1,1,3,2,2,2,3,1,1,2,2,3,4,5,5 | 1,3,1,4,5,4,2,3,5,2,1,4,2,1,2,4,1,4,2,2,3,3,4,3,2,3,1,3,2,1,4,4,1,5,5,1,3,5,4,2 | 1,2,4,1,5,5,3,5,3,2,1,2,2,1,2,2,2,2,2,1,3,1,4,1,1,4,2,5,3,1,1,1,3,2,5,3,3,3,3,5 | 3,5,2,5,4,4,4,1,5,1,2,2,3,4,4,1,4,5,1,1,3,5,1,5,3,2,3,3,4,3,4,4,2,2,3,3,1,4,4,3 | 5,2,1,5,4,2,5,1,1,2,5,1,3,1,5,5,5,1,2,3,1,3,5,4,3,2,4,3,2,1,3,4,2,5,4,4,2,3,4,5 | 4,1,2,5,5,1,5,4,5,4,1,1,1,1,5,4,4,5,5,4,3,2,2,1,4,3,1,2,4,4,1,3,5,3,5,2,5,1,5,3 | 4,2,2,3,3,5,5,4,3,2,1,1,4,2,4,2,1,3,3,1,5,4,5,4,1,5,5,1,4,5,2,5,5,2,3,3,1,5,4,1 | 5,1,4,2,4,2,4,4,2,5,3,1,4,3,4,3,1,2,5,5,5,1,3,1,1,3,5,1,4,5,2,3,1,5,2,1,2,2,5,2 | 1,3,4,4,3,5,5,3,4,4,3,5,5,5,3,5,5,5,5,2,3,4,3,2,1,5,1,5,2,1,4,2,3,4,5,3,5,4,2,5 | 1,3,3,5,1,2,5,1,4,5,2,3,5,3,3,2,5,1,2,5,5,5,5,2,5,3,2,1,3,5,1,1,3,5,4,1,5,3,5,3 | 5,3,5,3,5,2,5,5,1,5,3,2,5,2,3,4,1,3,4,3,2,3,5,2,2,1,2,4,1,4,4,2,4,1,3,2,3,3,3,4 | 3,1,4,2,5,2,1,4,3,5,2,1,3,2,3,3,5,1,3,4,4,2,2,1,5,2,5,1,5,2,2,1,5,3,2,5,2,2,3,3 | 2,3,4,2,1,5,4,1,5,3,5,4,3,4,5,3,3,4,4,5,4,4,1,2,5,5,3,2,3,5,1,5,5,3,1,3,2,1,4,4 | 1,2,1,2,3,4,3,3,1,3,1,3,5,2,1,1,2,5,2,5,4,2,4,2,5,5,2,1,2,3,4,1,2,3,4,5,3,5,2,4 | 1,3,3,4,5,2,1,5,2,2,5,3,3,3,1,3,1,4,1,4,4,4,4,4,4,1,1,2,3,4,4,1,4,5,2,3,4,2,5,5 | 1,4,2,4,2,5,3,1,2,3,3,1,1,5,5,2,2,5,3,5,5,5,4,5,1,4,5,1,5,4,2,1,3,5,2,1,5,1,5,4 | 5,5,5,4,4,2,3,4,2,4,2,3,5,3,3,5,2,1,4,3,4,1,1,1,1,5,5,3,1,5,5,1,5,5,3,1,1,4,2,5 | 4,2,2,5,4,1,3,2,1,2,5,3,3,4,3,1,3,2,2,4,5,4,3,5,3,5,4,1,5,4,5,5,2,5,4,2,3,2,3,1 | 2,1,1,4,2,5,3,1,1,2,1,4,2,5,5,1,3,4,1,4,4,1,1,1,1,4,3,3,2,3,3,4,3,3,4,4,1,4,1,1 | 5,2,2,4,3,1,5,4,4,3,4,5,1,1,5,5,5,1,4,2,4,4,3,3,2,4,2,4,3,1,2,3,5,5,2,1,2,1,5,5 | 5,2,5,2,5,5,2,1,1,1,4,2,1,3,2,3,4,4,5,1,2,2,2,4,1,1,2,4,3,5,3,4,5,5,1,1,1,3,1,5 | 1,1,1,1,5,1,5,2,2,5,5,1,1,5,4,2,4,3,1,4,5,4,5,5,1,3,1,5,5,3,3,3,2,3,3,4,2,2,3,5 | 4,3,3,5,5,3,4,4,4,1,4,1,3,1,1,4,1,2,1,2,2,5,5,3,1,5,5,4,4,1,5,2,5,3,2,3,3,3,4,1 | 4,4,5,3,4,4,1,1,3,5,5,5,3,3,4,5,3,1,5,3,5,4,3,3,3,2,2,5,4,3,3,2,1,5,1,4,5,3,5,3 | 5,1,1,3,1,2,3,2,2,4,4,2,2,4,2,3,3,1,4,5,3,1,3,3,3,5,3,4,1,2,4,2,4,3,1,1,4,1,3,4 | 2,3,4,3,4,5,2,4,5,1,4,5,2,3,2,2,1,5,1,3,4,5,2,4,4,4,2,5,2,4,4,3,2,3,3,3,3,1,3,4 | 4,1,3,2,4,5,4,3,3,3,3,2,2,5,4,5,1,4,1,5,3,5,5,1,1,2,4,4,4,3,5,1,4,3,1,3,2,1,5,1 | 1,2,2,2,3,1,3,1,5,2,5,4,2,2,5,3,5,1,2,5,3,1,3,1,5,2,1,5,2,5,5,1,5,2,5,2,5,1,2,5 | 1,4,3,2,4,4,3,2,5,3,3,4,1,4,5,3,3,5,1,5,2,2,3,1,5,3,2,5,3,5,2,5,3,3,5,4,2,3,5,3 | 4,1,1,4,1,3,5,3,3,1,5,3,4,2,1,5,4,5,2,4,3,4,2,5,3,5,4,3,5,2,4,1,3,2,2,1,1,1,3,2 | 3,3,4,1,5,5,3,1,5,4,1,2,4,4,3,4,2,2,1,5,1,4,3,1,1,2,3,1,1,4,2,1,4,5,5,4,1,2,5,5 | 3,5,3,2,2,4,1,5,3,1,4,2,4,4,3,2,2,4,2,4,4,4,1,4,2,1,5,4,4,5,5,2,2,3,1,4,2,1,4,4 | 5,3,1,2,1,5,4,5,4,1,2,5,2,2,1,2,5,3,4,3,3,1,3,4,3,2,5,1,2,5,4,2,2,5,4,4,5,1,2,4 | 1,2,3,5,1,1,3,4,2,4,5,5,3,4,2,4,3,4,1,1,2,4,4,3,1,1,1,2,1,5,2,4,4,3,2,1,3,2,1,3 | 2,2,1,5,1,3,3,1,4,3,1,5,4,4,5,1,2,1,2,3,2,4,2,3,3,3,3,5,3,1,4,3,2,5,4,4,2,1,3,1 | 1,2,3,3,3,4,2,3,5,4,3,1,3,4,1,3,5,2,1,4,4,2,1,4,5,3,2,2,3,5,5,1,3,5,1,1,5,4,5,5 | 3,1,2,3,5,4,1,4,5,5,2,4,2,1,2,1,1,3,3,2,1,1,2,5,4,5,4,2,1,1,4,3,1,2,5,1,5,1,1,1 | 4,2,1,3,1,5,1,1,2,1,1,5,4,1,1,1,4,3,3,2,1,4,3,4,3,4,3,2,1,3,1,4,1,1,4,3,2,4,4,5 | 1,1,1,2,5,4,2,2,5,1,5,3,1,2,5,5,5,4,1,2,1,5,1,2,3,5,3,3,4,4,5,4,1,3,2,3,5,3,2,2 | 3,1,1,3,4,2,3,2,2,4,4,2,3,2,2,3,1,2,4,3,5,3,5,4,1,1,3,3,4,4,2,2,5,2,5,5,2,2,3,4 | 1,1,2,1,2,1,3,4,4,3,3,4,5,3,4,1,5,5,4,5,4,4,4,4,5,5,3,5,2,2,1,3,5,2,2,5,2,3,5,1 | 2,2,1,1,3,3,4,5,1,2,2,4,2,5,2,5,1,1,5,4,5,1,3,1,1,4,2,1,2,2,4,1,1,4,4,1,3,3,1,2 | 2,3,4,4,2,5,4,2,4,4,3,2,1,3,5,1,4,4,5,5,4,3,5,1,2,5,4,1,5,4,3,1,2,3,3,3,2,5,3,2 | 5,5,2,2,5,5,4,1,1,3,5,2,5,4,1,4,3,2,2,1,5,2,3,2,3,2,5,1,3,5,1,5,5,3,5,2,1,4,2,5 | 4,5,5,4,4,2,2,4,5,3,1,4,2,2,1,3,4,1,4,4,2,3,3,3,2,2,1,5,5,3,3,5,1,5,3,3,4,2,3,2 | 4,2,4,1,2,2,3,2,5,5,3,4,1,4,2,2,1,5,1,4,4,3,1,1,1,1,5,2,3,2,3,4,3,4,2,1,1,5,3,5 | 1,4,5,1,4,2,3,4,4,4,1,3,5,2,4,2,4,4,3,2,1,2,3,4,2,4,5,5,5,4,3,1,3,2,1,1,5,5,3,1 | 3,2,4,4,4,1,4,3,1,5,3,3,1,5,3,1,4,1,5,5,3,4,1,1,2,4,3,5,4,5,2,2,2,3,1,2,4,2,2,3 | 4,1,3,2,5,1,2,1,3,5,5,4,1,4,2,3,3,4,3,5,1,1,2,4,5,2,2,1,1,4,5,4,2,5,4,4,5,3,3,1 |];
